13608.39,51.17,58.13
13567.24,51.33,58.31
12403.07,56.15,63.78
15041.93,46.3,52.59
14053.92,49.55,56.29
14313.59,48.65,55.27
13947.67,49.93,56.72
13795.14,50.48,57.35
14200.91,49.04,55.71
13766.34,50.59,57.47
14878.92,46.8,53.17
13237.46,52.61,59.76
13665.38,50.96,57.89
14722.96,47.3,53.73
13677.69,50.91,57.84
13757.86,50.62,57.5
16029.73,43.44,49.35
13565.53,51.34,58.32
14813.76,47.01,53.4
17154.06,40.6,46.12
